*NODE
1,0,0,0
2,100,0,0
3,100,100,0
4,0,100,0
5,0,0,100
6,100,0,100
7,100,100,100
8,0,100,100
9,-10,-10,-100
10,110,-10,-100
11,110,110,-100
12,-10,110,-100
13,-10,-10,0
14,110,-10,0
15,110,110,0
16,-10,110,0
*ELEMENT,TYPE=C3D8,ELSET=WOOD
1,1,2,3,4,5,6,7,8
*ELEMENT,TYPE=C3D8,ELSET=GROUND
2,9,10,11,12,13,14,15,16
*NSET,NSET=GROUND
9,10,11,12,13,14,15,16
*NSET,NSET=WOOD
1,2,3,4,5,6,7,8
*MATERIAL,NAME=WOOD
*ELASTIC
7000,.3
*DENSITY
6e-10
*SOLID SECTION,ELSET=WOOD,MATERIAL=WOOD
*SOLID SECTION,ELSET=GROUND,MATERIAL=WOOD
*SURFACE,NAME=SLAVE
1,S1
*SURFACE,NAME=MASTER
2,S2
*SURFACE INTERACTION,NAME=FLOOR
*SURFACE BEHAVIOR,PRESSURE-OVERCLOSURE=LINEAR
10000
*FRICTION
.3,100
*CONTACT PAIR,INTERACTION=FLOOR,TYPE=SURFACE TO SURFACE
SLAVE,MASTER
*BOUNDARY
GROUND,1,3,0
*STEP,NLGEOM,INC=100
*STATIC
0.05,1,1e-6,0.1
*DLOAD
WOOD,GRAV,9806.65,0,0,-1
*NODE PRINT,NSET=WOOD
U
*NODE PRINT,NSET=GROUND
RF
*CONTACT FILE
CDIS,CSTR
*END STEP
